Input file: instance_28.lp
Input data:
num_squadre(3).
player(1, attaccante, difensore).
player(2, attaccante, difensore).
player(3, centrocampista, portiere).
player(4, portiere, centrocampista).
player(5, attaccante, centrocampista).
player(6, attaccante, difensore).
player(7, difensore, portiere).
player(8, attaccante, portiere).
player(9, attaccante, difensore).
player(10, difensore, centrocampista).
player(11, attaccante, difensore).
player(12, attaccante, centrocampista).
player(13, difensore, centrocampista).
player(14, portiere, centrocampista).
player(15, attaccante, portiere).
player(16, attaccante, difensore).
player(17, attaccante, difensore).
player(18, difensore, attaccante).
player(19, centrocampista, attaccante).
player(20, attaccante, portiere).
player(21, difensore, centrocampista).
player(22, centrocampista, portiere).
player(23, difensore, attaccante).
player(24, portiere, difensore).
player(25, attaccante, difensore).
player(26, attaccante, difensore).
player(27, difensore, attaccante).
player(28, portiere, attaccante).
different_team(1, 2).
different_team(1, 3).
different_team(2, 3).


Output Clingo:
clingo version 5.7.1
Reading from ...ed-Reasoning-Project\Clingo\implASP.lp ...
Solving...
Answer: 1
assigned(1,1,difensore) assigned(2,3,difensore) assigned(3,2,centrocampista) assigned(4,2,centrocampista) assigned(5,2,attaccante) assigned(6,1,attaccante) assigned(7,2,difensore) assigned(8,1,portiere) assigned(9,1,attaccante) assigned(10,3,difensore) assigned(11,1,attaccante) assigned(12,2,attaccante) assigned(13,3,difensore) assigned(14,3,centrocampista) assigned(15,3,attaccante) assigned(16,3,difensore) assigned(17,1,difensore) assigned(18,1,attaccante) assigned(19,3,centrocampista) assigned(20,2,portiere) assigned(21,2,difensore) assigned(22,1,centrocampista) assigned(23,1,attaccante) assigned(24,3,portiere) assigned(25,1,attaccante) assigned(26,1,difensore) assigned(27,2,difensore) assigned(28,3,attaccante) total_penalty(1)
Optimization: 1
Answer: 1
assigned(1,2,attaccante) assigned(2,1,difensore) assigned(3,3,centrocampista) assigned(4,1,centrocampista) assigned(5,3,centrocampista) assigned(6,1,difensore) assigned(7,3,difensore) assigned(8,1,portiere) assigned(9,2,difensore) assigned(10,3,centrocampista) assigned(11,3,difensore) assigned(12,2,centrocampista) assigned(13,3,centrocampista) assigned(14,3,centrocampista) assigned(15,2,portiere) assigned(16,3,difensore) assigned(17,2,difensore) assigned(18,3,difensore) assigned(19,1,centrocampista) assigned(20,3,attaccante) assigned(21,3,centrocampista) assigned(22,1,centrocampista) assigned(23,2,difensore) assigned(24,3,difensore) assigned(25,1,difensore) assigned(26,1,attaccante) assigned(27,2,difensore) assigned(28,3,portiere) total_penalty(1)
Optimization: 1
OPTIMUM FOUND

Models       : 2+
  Optimum    : yes
Optimization : 1
Calls        : 1
Time         : 62.021s (Solving: 62.01s 1st Model: 0.00s Unsat: 0.00s)
CPU Time     : 58.875s

Tempo di esecuzione Clingo: 62.04 secondi
